[2026-03-23T13:36:08.188Z] Pipeline "set_exp_2_exp_2_n017_c004_g005" → 2026_03_23_13_36_08_set_exp_2_exp_2_n017_c004_g005_max.sol
Set parameter WLSAccessID
Set parameter WLSSecret
Set parameter LicenseID to value 2792458
Set parameter LogFile to value "gurobi.log"
Using license file /root/gurobi.lic
Academic license 2792458 - for non-commercial use only - registered to an___@studenti.unipg.it

Gurobi Optimizer version 13.0.1 build v13.0.1rc0 (linux64 - "Ubuntu 24.04.4 LTS")
Copyright (c) 2026, Gurobi Optimization, LLC

Warning: Duplicate section found (read 'binary') - Is a variable name equal to an LP file format keyword?
Warning: Duplicate section found (read 'binary') - Is a variable name equal to an LP file format keyword?
Warning: Duplicate section found (read 'binary') - Is a variable name equal to an LP file format keyword?
Warning: Duplicate section found (read 'binary') - Is a variable name equal to an LP file format keyword?
Warning: Duplicate section found (read 'binary') - Is a variable name equal to an LP file format keyword?
Warning: Duplicate section found (read 'binary') - Is a variable name equal to an LP file format keyword?
Warning: Duplicate section found (read 'binary') - Is a variable name equal to an LP file format keyword?
Warning: Duplicate section found (read 'binary') - Is a variable name equal to an LP file format keyword?
Warning: Duplicate section found (read 'binary') - Is a variable name equal to an LP file format keyword?
Warning: Duplicate section found (read 'binary') - Is a variable name equal to an LP file format keyword?
Warning: Further warnings of this type will be omitted.
Read LP format model from file /root/bgw/data/uploads/2026_03_23_13_36_08_set_exp_2_exp_2_n017_c004_g005_max.lp
Reading time = 0.00 seconds
: 1609 rows, 207 columns, 4841 nonzeros

Using Gurobi shared library /opt/gurobi1301/linux64/lib/libgurobi.so.13.0.1

CPU model: AMD EPYC-Genoa Processor, instruction set [SSE2|AVX|AVX2|AVX512]
Thread count: 16 physical cores, 16 logical processors, using up to 16 threads

Academic license 2792458 - for non-commercial use only - registered to an___@studenti.unipg.it
Optimize a model with 1609 rows, 207 columns and 4841 nonzeros (Max)
Model fingerprint: 0x37ebb325
Model has 4 linear objective coefficients
Variable types: 21 continuous, 186 integer (186 binary)
Coefficient statistics:
  Matrix range     [1e+00, 2e+01]
  Objective range  [1e+00, 1e+00]
  Bounds range     [1e+00, 1e+00]
  RHS range        [1e+00, 2e+01]

Found heuristic solution: objective 4.0000000
Presolve removed 221 rows and 53 columns
Presolve time: 0.01s
Presolved: 1388 rows, 154 columns, 4276 nonzeros
Variable types: 0 continuous, 154 integer (146 binary)

Root relaxation: objective 1.600000e+01, 124 iterations, 0.01 seconds (0.00 work units)

    Nodes    |    Current Node    |     Objective Bounds      |     Work
 Expl Unexpl |  Obj  Depth IntInf | Incumbent    BestBd   Gap | It/Node Time

     0     0   16.00000    0   19    4.00000   16.00000   300%     -    0s
H    0     0                       9.0000000   16.00000  77.8%     -    0s
H    0     0                      10.0000000   16.00000  60.0%     -    0s
H    0     0                      11.0000000   16.00000  45.5%     -    0s
     0     0   16.00000    0   24   11.00000   16.00000  45.5%     -    0s
     0     0   16.00000    0   24   11.00000   16.00000  45.5%     -    0s
     0     0   16.00000    0   23   11.00000   16.00000  45.5%     -    0s
     0     0   16.00000    0   16   11.00000   16.00000  45.5%     -    0s
     0     0   16.00000    0   15   11.00000   16.00000  45.5%     -    0s
     0     0   16.00000    0   15   11.00000   16.00000  45.5%     -    0s
     0     0   15.86667    0   16   11.00000   15.86667  44.2%     -    0s
     0     0   15.86667    0   16   11.00000   15.86667  44.2%     -    0s
     0     0   15.00000    0   22   11.00000   15.00000  36.4%     -    0s
     0     0   15.00000    0   17   11.00000   15.00000  36.4%     -    0s
     0     0   14.80000    0   11   11.00000   14.80000  34.5%     -    0s
     0     0   14.80000    0   11   11.00000   14.80000  34.5%     -    0s
     0     0   14.00000    0   12   11.00000   14.00000  27.3%     -    0s
     0     0   14.00000    0   12   11.00000   14.00000  27.3%     -    0s
     0     0   14.00000    0   11   11.00000   14.00000  27.3%     -    0s
     0     0   14.00000    0   11   11.00000   14.00000  27.3%     -    0s
     0     0   14.00000    0   11   11.00000   14.00000  27.3%     -    0s
     0     0   14.00000    0   11   11.00000   14.00000  27.3%     -    0s
     0     2   14.00000    0   11   11.00000   14.00000  27.3%     -    0s

Cutting planes:
  Cover: 1
  MIR: 5
  Inf proof: 11
  Zero half: 1

Explored 401 nodes (17267 simplex iterations) in 0.32 seconds (0.30 work units)
Thread count was 16 (of 16 available processors)

Solution count 4: 11 10 9 4 

Optimal solution found (tolerance 1.00e-04)
Best objective 1.100000000000e+01, best bound 1.100000000000e+01, gap 0.0000%

Wrote result file '/root/bgw/data/results/2026_03_23_13_36_08_set_exp_2_exp_2_n017_c004_g005_max.sol'

